5 5
3 34 2 97 0 25 1 42 4 29
0 25 3 54 4 73 2 67 1 15
4 4 2 38 0 20 3 23 1 37
1 62 4 8 0 37 2 45 3 97
4 33 0 7 2 22 3 5 1 15
-1
0 2 3 4 5
0 1 5
0 1 5
0 3 5
0 1 3 5
-2
147 207 219 274
37 280
4 163
169 281
44 66 90

301 2
5 12 17 21 2
15 14 3 9 24
11 1 18 8 22
0 6 13 19 23
10 20 16 7 4
